# Objective value = 2.9328396626916765e+02
x[0] 1
x[1] 1
x[2] 0
x[3] 0
x[4] 0
x[5] 1
x[6] 0.999999965263206
x[7] 0
x[8] 0
x[9] 0
x[10] 1
x[11] 1
x[12] 1
x[13] 3.7316992295076249e-08
x[14] 9.9999998564619552e-01
x[15] 3.7333269271823795e-08
x[16] 1
x[17] 0
x[18] 5.6107485376033315e-07
x[19] 1
x[20] -5.61175742874731e-07
x[21] 0
x[22] 0
x[23] 0
x[24] 3.7287508354877468e-08
x[25] 3.7258268187383469e-08
x[26] 3.7254012609379611e-08
x[27] 1
x[28] 1
x[29] 0
x[30] 0
x[31] 9.9999996758828447e-01
x[32] 0
x[33] 1
x[34] 0.999999965921618
x[35] 1
x[36] 1
x[37] 1
x[38] 1
x[39] 0
x[40] 0
x[41] 0
x[42] 3.7076960304665557e-08
x[43] 1
x[44] 1
x[45] 1
x[46] 0
x[47] 1
x[48] 0.999999965921618
x[49] 0
x[50] 0
x[51] 0
x[52] 0
x[53] 9.9999996258828494e-01
x[54] 0
x[55] 0
x[56] 0
x[57] 5.6106054115271414e-07
x[58] 1
x[59] 1
x[60] 0
x[61] 1
x[62] 1
x[63] 0
x[64] 1
x[65] 1
x[66] 1
x[67] 9.9999944215758974e-01
x[68] 0
x[69] 9.9999996258828461e-01
x[70] 1
x[71] 1
x[72] 0
x[73] 1
x[74] 1
x[75] 1
x[76] 0
x[77] 0
x[78] 0
x[79] 1
x[80] 0
x[81] 0
x[82] 9.9999944215758974e-01
x[83] 1
x[84] 1
x[85] 5.6060876782881879e-07
x[86] 1
x[87] 0
x[88] 5.6081767808815978e-07
x[89] 1
x[90] 0
x[91] 3.7338423477944242e-08
x[92] 0
x[93] 1
x[94] 1
x[95] 0
x[96] 0
x[97] 0
x[98] 0
x[99] 9.9999981794142412e-01
x[100] 0
x[101] 1
x[102] 9.9999944215758974e-01
x[103] 0
x[104] 0
x[105] 0
x[106] 0
x[107] 9.9999996258828450e-01
x[108] 1
x[109] 1
x[110] 0
x[111] 0
x[112] 1
x[113] 0
x[114] 0
x[115] 0
x[116] 1
x[117] 0
x[118] 1
x[119] 1
x[120] 0
x[121] 3.7337915499937112e-08
x[122] 1
x[123] 0
x[124] 0
x[125] 1
x[126] 1
x[127] 9.9999996592161766e-01
x[128] 0
x[129] 0
x[130] 1
x[131] 0
x[132] 1
x[133] 1
x[134] 1
x[135] 1
x[136] 1
x[137] 1
x[138] 0
x[139] 1
x[140] 1
x[141] 1
x[142] 0
x[143] 0
x[144] 1
x[145] 9.9999996258828461e-01
x[146] 0
x[147] 1
x[148] 0
x[149] 0
x[150] 9.9999944215758974e-01
x[151] 1
x[152] 0
x[153] 1
x[154] 0
x[155] 0
x[156] 0
x[157] 1
x[158] 1
x[159] 0
x[160] 1
x[161] 0
x[162] 0
x[163] 1
x[164] 0
x[165] 1
x[166] 0
x[167] 0
x[168] 1
x[169] 0
x[170] 0
x[171] 0
x[172] 1
x[173] 1
x[174] 0
x[175] 1
x[176] 1
x[177] 3.72602096027691e-08
x[178] 1
x[179] 1
x[180] 0
x[181] 0
x[182] 0
x[183] 0
x[184] 0
x[185] 1
x[186] 1
x[187] 1
x[188] 0
x[189] 1
x[190] 1
x[191] 0
x[192] 9.9999996592161822e-01
x[193] 0
x[194] 0
x[195] 0
x[196] 1
x[197] 0
x[198] 1
x[199] 0
x[200] 3.7234067984282506e-08
x[201] 1
x[202] 0
x[203] 0
x[204] 0
x[205] 0
x[206] 0
x[207] 1
x[208] 9.9999996258828450e-01
x[209] 0
x[210] 1
x[211] 0
x[212] 3.7330224733489348e-08
x[213] 3.7310172971726054e-08
x[214] 1
x[215] 0
x[216] 0
x[217] 1.0000005236733225e+00
x[218] 0
x[219] 9.9999996609926534e-01
x[220] 1
x[221] 1
x[222] 1
x[223] 0
x[224] 0
x[225] 0
x[226] 1
x[227] 1
x[228] 1
x[229] 3.7062890175328624e-08
x[230] 0
x[231] 1
x[232] 0
x[233] 0
x[234] 1
x[235] 1
x[236] 1
x[237] 3.7195144902773991e-08
x[238] 0
x[239] 0
x[240] 1
x[241] 0
x[242] 0
x[243] 9.9999996758828458e-01
x[244] 0
x[245] 1
x[246] 0
x[247] 0
x[248] 1
x[249] 1
x[250] 1
x[251] 9.9999996592161788e-01
x[252] 0
x[253] 0
x[254] 1
x[255] 0
x[256] 0
x[257] 0
x[258] 0
x[259] 0
x[260] 1
x[261] 0
x[262] 3.7297238320123512e-08
x[263] 0
x[264] 0
x[265] 0
x[266] 0
x[267] 0
x[268] 1
x[269] 1
x[270] 0
x[271] 0
x[272] 1
x[273] 0
x[274] 1
x[275] 1
x[276] 1
x[277] 0
x[278] 0
x[279] 0
x[280] 1
x[281] 1
x[282] 1
x[283] 0
x[284] 0
x[285] 1
x[286] 1
x[287] 3.7223001577391919e-08
x[288] 1
x[289] 1
x[290] 1
x[291] 1
x[292] 1
x[293] 1
x[294] 1.4932601513123055e-07
x[295] 0
x[296] 0
x[297] 0
x[298] 1
x[299] 0
x[300] 0
x[301] 1
x[302] 3.6689325962722295e-08
x[303] 0
x[304] 3.7297335926989348e-08
x[305] 0
x[306] 0
x[307] 0
x[308] 1
x[309] 0
x[310] 0
x[311] 0
x[312] 3.7012323138961652e-08
x[313] 1
x[314] 3.7297435494001019e-08
x[315] 0
x[316] 3.7256944913353413e-08
x[317] 0
x[318] 0
x[319] 1
x[320] 9.9999996555810722e-01
x[321] 0
x[322] 0
x[323] 0
x[324] 0
x[325] 0
x[326] 1
x[327] 0
x[328] 1
x[329] 0
x[330] 0
x[331] 0
x[332] 0
x[333] 1
x[334] 1
x[335] 0
x[336] 0
x[337] 1
x[338] 0
x[339] 1
x[340] 1
x[341] 0
x[342] 0
x[343] 0
x[344] 1
x[345] 0
x[346] 0
x[347] 1
x[348] 1
x[349] 0
x[350] 0
x[351] 1
x[352] 0
x[353] 0
x[354] 0
x[355] 0
x[356] 0
x[357] 1
x[358] 1
x[359] 0
x[360] 3.7265377114172075e-08
x[361] 3.7006930049633040e-08
x[362] 1
x[363] 0
x[364] 0
x[365] 0
x[366] 1
x[367] 0
x[368] 9.9999996592161788e-01
x[369] 0
x[370] 1
x[371] 0
x[372] 1
x[373] 0
x[374] 1
x[375] 0
x[376] 0
x[377] 1
x[378] 0
x[379] 1
x[380] 1
x[381] 0
x[382] 1
x[383] 0
x[384] 1
x[385] 1
x[386] 9.9999996592161833e-01
x[387] 0
x[388] 0
x[389] 1
x[390] 0
x[391] 0
x[392] 0
x[393] 0
x[394] 1
x[395] 0
x[396] 0
x[397] 1
x[398] 1
x[399] 0
x[400] 1
x[401] 1
x[402] 0
x[403] 0
x[404] 0
x[405] 1
x[406] 0
x[407] 0
x[408] 0
x[409] 3.7285437110348279e-08
x[410] 0
x[411] 0
x[412] 0
x[413] 0
x[414] 0
x[415] 1
x[416] 0
x[417] 0
x[418] 1
x[419] 0
x[420] 1
x[421] 1
x[422] 0
x[423] 0
x[424] 1
x[425] 1
x[426] 9.9999943882425635e-01
x[427] 0
x[428] 0
x[429] 0
x[430] 0
x[431] 1
x[432] 1
x[433] 0
x[434] 0
x[435] 0
x[436] 0
x[437] 1
x[438] 1
x[439] 0
x[440] 1
x[441] 0
x[442] 1
x[443] 0
x[444] 0
x[445] 1
x[446] 1
x[447] 0
x[448] 0
x[449] 0
x[450] 1
x[451] 0
x[452] 1
x[453] 1
x[454] 1
x[455] 0
x[456] 0
x[457] 3.7221992155312006e-08
x[458] 1
x[459] 0
x[460] 0
x[461] 1
x[462] 9.9999996592161822e-01
x[463] 0
x[464] 1
x[465] 0.999999965921618
x[466] 0
x[467] 0
x[468] 0
x[469] 1
x[470] 1
x[471] 0
x[472] 0
x[473] 0
x[474] 1
x[475] 1
x[476] 0
x[477] 1
x[478] 0
x[479] 1
x[480] 1
x[481] 0
x[482] 0
x[483] 0
x[484] 3.7217822766968070e-08
x[485] 1
x[486] 1
x[487] 0
x[488] 0
x[489] 1
x[490] 1
x[491] 1
x[492] 0
x[493] 1
x[494] 0
x[495] 1
x[496] 1
x[497] 0
x[498] 1
x[499] 0
x[500] 9.9999996748726416e-01
x[501] 1
x[502] 1
x[503] 1
x[504] 1
x[505] 0
x[506] 0
x[507] 1
x[508] 0
x[509] 1
x[510] 0
x[511] 1
x[512] 1
x[513] 1
x[514] 1
x[515] 1
x[516] 0
x[517] 1
x[518] 0
x[519] 0
x[520] 0
x[521] 1
x[522] 1
x[523] 0
x[524] 0
x[525] 1
x[526] 1
x[527] 1
x[528] 0
x[529] 3.7172180051276186e-08
x[530] 1
x[531] 1
x[532] 1
x[533] 0
x[534] 1
x[535] 9.9999996592161777e-01
x[536] 0
x[537] 0
x[538] 0
x[539] 1
x[540] 1
x[541] 0
x[542] 0
x[543] 0
x[544] 0
x[545] 9.9999944215758974e-01
x[546] 0
x[547] 1
x[548] 1
x[549] 1
x[550] 1
x[551] 1
x[552] 1
x[553] 1
x[554] 9.9999996258828450e-01
x[555] 0
x[556] 0
x[557] 1
x[558] 1
x[559] 1
x[560] 1
x[561] 0
x[562] 1
x[563] 1
x[564] 0
x[565] 0
x[566] 0
x[567] 0
x[568] 0
x[569] 3.7309114087105735e-08
x[570] 1
x[571] 0
x[572] 0
x[573] 5.6096030596640372e-07
x[574] 0
x[575] 1
x[576] 9.9999996758828480e-01
x[577] 1
x[578] 1
x[579] 0
x[580] 1
x[581] 0
x[582] 9.9999944215758974e-01
x[583] 3.7305945711285e-08
x[584] 0
x[585] 1
x[586] 1
x[587] 3.7277473187220922e-08
x[588] 1
x[589] 1
x[590] 1
x[591] 9.9999944382425632e-01
x[592] 1
x[593] 0
x[594] 1
x[595] 0
x[596] 0
x[597] 0
x[598] 0
x[599] 0
x[600] 1
x[601] 0
x[602] 0
x[603] 1
x[604] 0
x[605] 3.72647573763409e-08
x[606] 1
x[607] 1
x[608] 1
x[609] 0
x[610] 5.6102213983326046e-07
x[611] 0
x[612] 0
x[613] 0
x[614] 1
x[615] 0
x[616] 1
x[617] 0
x[618] 1
x[619] 1
x[620] 3.7279075777683316e-08
x[621] 0
x[622] 0
x[623] 0.999999965921618
x[624] 1
x[625] 0
x[626] 0
x[627] 0
x[628] 1
x[629] 0
x[630] 1
x[631] 0
x[632] 1
x[633] 0
x[634] 1
x[635] 1
x[636] 1
x[637] 0
x[638] 0
x[639] 9.9999996758828447e-01
x[640] 0
x[641] 0
x[642] 1
x[643] 9.9999996606795627e-01
x[644] 1
x[645] 1
x[646] 1
x[647] 0
x[648] 1
x[649] 0
x[650] 1
x[651] 9.9999996258828450e-01
x[652] 0
x[653] 9.9999996604789620e-01
x[654] 1
x[655] 1
x[656] 3.72336622583789e-08
x[657] 3.7144162377284095e-08
x[658] 1
x[659] 0
x[660] 1
x[661] 1
x[662] 1
x[663] 1
x[664] 1
x[665] 3.7296209584963682e-08
x[666] 1
x[667] 0
x[668] 0
x[669] 1
x[670] 1
x[671] 7.4723491756463163e-08
x[672] 0
x[673] 0
x[674] 0
x[675] 1
x[676] 1
x[677] 0
x[678] 0
x[679] 0
x[680] 0
x[681] 0
x[682] 0
x[683] 1
x[684] 1
x[685] 0
x[686] 1
x[687] 3.7269665555076405e-08
x[688] 5.6082504077010317e-07
x[689] 1
x[690] 1
x[691] 3.6964299471443132e-08
x[692] 1
x[693] 3.7309270380729412e-08
x[694] 1
x[695] 0
x[696] 1
x[697] 0
x[698] 0
x[699] 1
x[700] 0
x[701] 1
x[702] 0
x[703] 0
x[704] 1
x[705] 1
x[706] 1
x[707] 1
x[708] 1
x[709] 1
x[710] 1
x[711] 3.7267376290881642e-08
x[712] 1
x[713] 0
x[714] 0
x[715] 1
x[716] 1
x[717] 0
x[718] 0
x[719] 0
x[720] 1
x[721] 1
x[722] 1
x[723] 0
x[724] 1
x[725] 0
x[726] 1
x[727] 0
x[728] 0
x[729] 1
x[730] 1
x[731] 0
x[732] 0
x[733] 0
x[734] 1
x[735] 1
x[736] 0
x[737] 0
x[738] 1
x[739] 1
x[740] 1
x[741] 0
x[742] 0
x[743] 0
x[744] 1
x[745] 0
x[746] 1
x[747] 1
x[748] 9.9999996600310859e-01
x[749] 1
x[750] 1
x[751] 1
x[752] 1
x[753] 0
x[754] 1
x[755] 1
x[756] 1
x[757] 1
x[758] 0
x[759] 0
x[760] 0
x[761] 1
x[762] 0
x[763] 1
x[764] 0.999999966000064
x[765] 0
x[766] 3.7328867177536620e-08
x[767] 1
x[768] 1
x[769] 1
x[770] 1
x[771] 1
x[772] 1
x[773] 0
x[774] 1
x[775] 9.9999996758828458e-01
x[776] 0
x[777] 0
x[778] 9.9999944227279214e-01
x[779] 0
x[780] 0
x[781] 1
x[782] 0
x[783] 0
x[784] 0
x[785] 0
x[786] 9.9999996609967112e-01
x[787] 0
x[788] 0
x[789] 0
x[790] 0
x[791] 1
x[792] 1
x[793] 0
x[794] 3.7335576209692318e-08
x[795] 9.9999996546902614e-01
x[796] 0
x[797] 0
x[798] 1
x[799] 0
x[800] 0
x[801] 1
x[802] 1
x[803] 1
x[804] 0
x[805] 0
x[806] 0
x[807] 9.9999996602316032e-01
x[808] 3.7326817238704418e-08
x[809] 1
x[810] 1
x[811] 1
x[812] 0
x[813] 0.999999966045825
x[814] 0
x[815] 1
x[816] 0
x[817] 1
x[818] 1
x[819] 1
x[820] 3.7117084130783992e-08
x[821] 1
x[822] 1
x[823] 0
x[824] 1
x[825] 1
x[826] 1
x[827] 0
x[828] 1
x[829] 0
x[830] 1
x[831] 0
x[832] 0
x[833] 1
x[834] 0
x[835] 0
x[836] 1
x[837] 0
x[838] 1
x[839] 0
x[840] 0
x[841] 0
x[842] 1
x[843] 0
x[844] 0
x[845] 1
x[846] 0
x[847] 1
x[848] 1
x[849] 3.7295389735307282e-08
x[850] 9.9999996258828483e-01
x[851] 1
x[852] 0
x[853] 1
x[854] 1
x[855] 1
x[856] 5.60993177267685e-07
x[857] 1
x[858] 0
x[859] 0
x[860] 0
x[861] 1
x[862] 0
x[863] 1
x[864] 1
x[865] 0
x[866] 1
x[867] 0
x[868] 0
x[869] 1
x[870] 0
x[871] 1
x[872] 0
x[873] 1
x[874] 0
x[875] 1.0000000371884268e+00
x[876] 1
x[877] 1
x[878] 0
x[879] 1
x[880] 0
x[881] 0
x[882] 1
x[883] 1
x[884] 1
x[885] 9.9999996336316876e-01
x[886] 0
x[887] 0
x[888] 1
x[889] 0
x[890] 0
x[891] 1
x[892] 1
x[893] 1
x[894] 1
x[895] 1
x[896] 0
x[897] 1
x[898] 1
x[899] 1
x[900] 9.9999996758828447e-01
x[901] 0
x[902] 0
x[903] 1
x[904] 0
x[905] 0
x[906] 1
x[907] 0
x[908] 0
x[909] 0
x[910] 1
x[911] 1
x[912] 1
x[913] 1
x[914] 0
x[915] 1
x[916] 1
x[917] 9.9999996592161733e-01
x[918] 1
x[919] 1
x[920] 1
x[921] 9.9999996579816908e-01
x[922] 0
x[923] 0
x[924] 1
x[925] 1
x[926] 0
x[927] 0
x[928] 0
x[929] 1
x[930] 1
x[931] 0
x[932] 1
x[933] 9.9999992860984155e-01
x[934] 1
x[935] 0
x[936] 9.9999996758828447e-01
x[937] 1
x[938] 1
x[939] 0
x[940] 1
x[941] 0
x[942] 1
x[943] 5.6097243002178511e-07
x[944] 1
x[945] 0
x[946] 0
x[947] 0
x[948] 1
x[949] 1
x[950] 3.7130363911916295e-08
x[951] 0
x[952] 0
x[953] 1
x[954] 0
x[955] 1
x[956] 0
x[957] 1
x[958] 1
x[959] 0
x[960] 1
x[961] 0
x[962] 0
x[963] 0
x[964] 1
x[965] 9.9999996758828447e-01
x[966] 0
x[967] 1
x[968] 0
x[969] 0
x[970] 0
x[971] 1
x[972] 1
x[973] 0
x[974] 0
x[975] 1
x[976] 1
x[977] 0
x[978] 0
x[979] 1
x[980] 3.7332694630160871e-08
x[981] 0
x[982] 1
x[983] 1
x[984] 0
x[985] 0
x[986] 1
x[987] 1
x[988] 1
x[989] 1
x[990] 0
x[991] 9.9999996758828458e-01
x[992] 0
x[993] 0
x[994] 1
x[995] 1
x[996] 1
x[997] 1
x[998] 0
x[999] 0
